n_res = 5;
n_events = 102;
n_prec = 262;
source = 1;
sink = 102;
min_lvl = [-17, -6, -7, -12, -15];
max_lvl = [1, 20, 2, 5, 2];
rr = [| 0, 0, 0, -1, 0, 2, 0, 0, 1, 0, -2, 1, 0, 0, 0, 1, 0, -2, 0, 1, 0, -1, 2, 1, 2, 1, 0, 1, -1, -2, -2, 1, -2, 2, 0, -2, 0, 0, -1, 0, -2, 0, 0, 2, -1, 2, 0, -2, -2, 0, 2, 1, -2, 0, -1, 0, 0, 0, -1, 0, -1, -1, -2, 1, 1, 0, 0, 2, -1, -1, 0, 0, -2, 1, -2, -2, 0, -1, 0, -1, -2, -1, 2, 0, 0, 0, 0, -1, 0, -2, 1, 0, 0, 0, -2, 0, 1, 0, 2, 0, -1, 0
      | 0, -1, -1, 0, 1, 0, 0, 2, -2, 2, 0, 0, 1, -1, -2, 2, 2, 0, 0, -2, 1, 2, -1, -1, 1, 2, 1, -2, 0, 1, -2, 0, 0, 0, 2, 0, 0, 0, 0, 1, 2, 2, -1, 2, 0, 0, -2, 0, 2, 0, 1, 0, 2, -1, -1, 0, 0, 1, 0, -2, 1, 1, -1, 0, 2, 0, 1, 1, 0, 0, 0, 1, 2, 0, 0, 1, -1, 0, -2, -1, 0, 1, 2, 1, 1, 0, -2, -2, 2, 0, 0, 2, 0, 0, -2, 0, -1, 2, 0, -1, 0, 0
      | 0, 0, 0, 1, 2, -1, -2, -1, -2, -1, 1, 0, -2, -1, 0, -1, 2, 1, 0, 0, -2, 2, -1, 0, 1, 0, 2, 1, 2, 0, 0, -1, 0, 0, 0, 2, 0, -1, 0, 1, 2, 0, -2, 0, 1, 0, 0, 0, 0, 0, 0, 0, 0, 1, 0, 0, 2, -1, -1, -2, -1, -1, 2, 0, 0, 0, -1, 1, 0, 2, -2, 1, 0, 1, 0, 0, 0, -2, 0, -1, -2, -1, -2, -2, 0, 0, 0, 2, 2, 1, 1, 2, 2, -1, -1, -2, -1, 2, 0, 0, 1, 0
      | 0, 0, 0, 0, 0, -1, 0, -1, 1, 0, 2, -2, 0, 0, -1, -1, -1, 2, 0, 0, 0, 2, 1, 0, -2, 0, 0, -1, -2, 0, 0, -2, 1, -2, 0, 2, -1, 0, 0, 0, -2, 0, -1, 1, -2, -1, 2, 0, 0, 0, -1, 0, 0, 1, -2, 0, 2, -2, 0, 0, 0, -2, -1, -2, 2, 0, 0, -1, 0, 0, 0, 2, -2, 1, -2, -2, -1, -1, 2, -2, 2, -1, 2, 0, 0, 2, 2, 0, 0, 2, 0, 0, -1, 2, 2, 2, 0, 1, -2, 0, 2, 0
      | 0, -1, 0, 2, 0, -1, -2, -1, 1, 2, -2, -2, 2, 1, -1, -1, 0, 1, 0, 0, 0, 1, -1, 0, -2, 0, 1, 2, 0, 0, 0, -2, -1, 0, 1, 1, -2, -1, 0, -2, 1, 1, -2, -1, 2, 0, 0, 0, 0, 0, -1, 2, -1, 2, -1, 0, 0, 1, -2, 0, 0, -1, 0, 0, -2, -2, 0, -1, -1, 0, 0, 2, 0, 2, -1, 1, -2, -1, -1, 0, 0, -2, 2, 0, 0, 0, 1, -1, -1, 1, 0, 2, 0, -1, 1, -2, -1, 1, 1, -2, 0, 0 |];
prec = [| 1, 0, 5
        | 1, 0, 9
        | 1, 0, 7
        | 1, 0, 8
        | 1, 0, 6
        | 1, 0, 2
        | 1, 0, 3
        | 1, 0, 4
        | 2, -1, 19
        | 2, 5, 55
        | 3, -5, 99
        | 3, 6, 102
        | 4, 3, 48
        | 4, -2, 99
        | 4, 0, 72
        | 4, 7, 57
        | 4, 8, 98
        | 5, 0, 40
        | 5, 2, 97
        | 6, 3, 42
        | 6, 2, 31
        | 7, 7, 20
        | 7, 26, 91
        | 7, 6, 18
        | 7, -4, 96
        | 7, 10, 45
        | 7, 17, 39
        | 8, 13, 11
        | 8, 8, 75
        | 8, 17, 81
        | 8, -4, 92
        | 9, 20, 62
        | 9, 21, 57
        | 10, 1, 76
        | 10, 0, 97
        | 11, -2, 74
        | 11, 10, 79
        | 11, 11, 52
        | 11, 15, 29
        | 12, 3, 10
        | 12, 3, 35
        | 13, -1, 93
        | 13, -1, 24
        | 13, 4, 98
        | 13, 6, 66
        | 14, 8, 91
        | 14, 17, 39
        | 14, 4, 27
        | 15, -1, 64
        | 15, 0, 99
        | 16, 3, 39
        | 16, 9, 91
        | 16, -1, 14
        | 17, -2, 54
        | 17, 18, 32
        | 18, 13, 96
        | 18, 12, 20
        | 19, 26, 101
        | 19, 12, 51
        | 20, 3, 45
        | 20, -3, 91
        | 20, 2, 27
        | 21, -141, 2
        | 21, 2, 46
        | 22, 26, 57
        | 22, 26, 34
        | 22, -257, 65
        | 22, 23, 77
        | 23, 1, 73
        | 23, 17, 68
        | 24, 24, 23
        | 24, 6, 79
        | 24, -2, 29
        | 25, 1, 23
        | 26, 3, 65
        | 26, 0, 56
        | 26, 1, 34
        | 27, 2, 39
        | 28, 17, 50
        | 28, 4, 38
        | 29, -1, 25
        | 29, 7, 57
        | 29, 5, 95
        | 29, 8, 48
        | 30, -28, 88
        | 30, 8, 98
        | 30, -6, 32
        | 31, 5, 34
        | 31, 2, 68
        | 31, 14, 23
        | 31, 0, 33
        | 32, -3, 98
        | 32, 9, 102
        | 32, -36, 66
        | 33, -1, 48
        | 33, 3, 47
        | 34, 0, 56
        | 34, -175, 37
        | 35, 1, 10
        | 35, 2, 59
        | 35, 5, 85
        | 36, -9, 41
        | 36, 6, 48
        | 37, 0, 22
        | 37, 0, 86
        | 37, 0, 34
        | 37, -348, 65
        | 38, -107, 28
        | 38, -3, 19
        | 38, -81, 90
        | 38, 3, 101
        | 38, 18, 50
        | 39, -3, 91
        | 39, 7, 58
        | 39, 9, 96
        | 40, 0, 12
        | 41, 3, 26
        | 41, 1, 65
        | 42, 9, 94
        | 42, -1, 48
        | 42, 8, 79
        | 43, 25, 23
        | 43, 0, 49
        | 43, -7, 29
        | 43, 22, 44
        | 44, -354, 65
        | 44, 1, 98
        | 44, 1, 34
        | 44, 4, 66
        | 44, -1, 57
        | 45, 5, 16
        | 45, 2, 91
        | 46, 7, 28
        | 46, 10, 51
        | 47, 26, 73
        | 47, 9, 80
        | 48, 1, 66
        | 48, -185, 23
        | 48, 0, 57
        | 48, 3, 32
        | 49, 0, 22
        | 49, 6, 42
        | 50, 8, 101
        | 50, -139, 69
        | 50, 11, 51
        | 50, -138, 21
        | 50, 5, 19
        | 51, 7, 101
        | 52, 6, 63
        | 52, 5, 95
        | 52, -1, 78
        | 53, 15, 82
        | 53, -2, 54
        | 53, 3, 30
        | 54, 1, 41
        | 54, 2, 53
        | 55, -1, 90
        | 55, 0, 71
        | 55, 15, 69
        | 56, 5, 48
        | 56, -239, 6
        | 56, -177, 89
        | 56, 0, 98
        | 57, 0, 88
        | 57, 6, 30
        | 58, 3, 96
        | 59, 15, 97
        | 59, 19, 85
        | 60, 2, 56
        | 60, -1, 73
        | 60, 8, 77
        | 61, 6, 52
        | 61, 20, 73
        | 62, 5, 53
        | 62, 23, 17
        | 63, 0, 79
        | 63, -218, 80
        | 63, 15, 22
        | 64, -2, 99
        | 65, 3, 32
        | 65, -206, 26
        | 65, 2, 37
        | 66, 0, 30
        | 66, -5, 98
        | 66, 8, 32
        | 67, 3, 61
        | 67, -2, 98
        | 68, 5, 56
        | 68, 4, 60
        | 68, -252, 24
        | 68, -2, 30
        | 69, -7, 19
        | 69, -2, 46
        | 69, 13, 21
        | 70, 24, 50
        | 70, -3, 19
        | 70, 0, 71
        | 71, 17, 69
        | 72, 7, 48
        | 72, -2, 88
        | 72, 0, 66
        | 72, 5, 87
        | 73, 4, 89
        | 74, 21, 84
        | 75, 9, 24
        | 76, 22, 97
        | 77, -3, 88
        | 77, -327, 68
        | 77, 15, 44
        | 77, -220, 29
        | 78, 1, 22
        | 78, -1, 92
        | 79, 17, 95
        | 80, 5, 43
        | 80, 2, 23
        | 80, 0, 93
        | 81, 2, 63
        | 81, 0, 66
        | 82, 3, 36
        | 82, -2, 65
        | 83, 21, 100
        | 84, 0, 24
        | 84, 2, 67
        | 84, 0, 34
        | 84, 1, 52
        | 85, 3, 10
        | 86, 7, 66
        | 87, -1, 64
        | 87, -1, 99
        | 87, 6, 15
        | 88, -2, 66
        | 88, 13, 32
        | 88, 22, 98
        | 88, 3, 86
        | 89, -152, 29
        | 89, -2, 81
        | 89, -240, 49
        | 90, 7, 70
        | 90, 0, 38
        | 90, -79, 2
        | 90, 1, 21
        | 91, 6, 58
        | 91, 6, 96
        | 92, 21, 75
        | 92, 24, 89
        | 92, -9, 23
        | 92, 14, 60
        | 93, 29, 100
        | 93, 15, 83
        | 94, 20, 13
        | 95, 8, 102
        | 96, 7, 102
        | 97, 5, 102
        | 98, 2, 102
        | 99, -11, 3
        | 99, -5, 64
        | 99, 7, 102
        | 99, -5, 15
        | 100, 6, 102
        | 100, -207, 83
        | 100, -283, 6
        | 101, 2, 102 |];
